(declare-fun e () String)
(declare-fun g () String)
(declare-fun b () String)
(declare-fun d () String)
(declare-fun f () String)
(declare-fun a () String)
(declare-fun h () String)
(assert (= (str.++ a "gb") (str.++ "e" d f d)))
(assert (= (str.++ g g a b) (str.++ "b" e)))
(assert (= b (str.++ "fc" h "ced")))

(check-sat)
